2674210
198,131,223,9,21,142,4,90,150,171,186,88,12,103,121,222,100,53,92,56,99,66,175,105,41,219,93,172,17,85,152,29,163,19,69,134,122,204,95,51,208,139,45,230,126,70,52,98,31,11,68,96,156,176,84,123,203,94,1,60,16,23,67,162,108,78,205,37,89,196,26,117,151,63,36,39,71,127,49,118,74,193,201,10,44,120,200,220,97,154,132,206,109,170,187,42,124,111,34,226,195,199,164,46,47,8,212,207,72,135,83,113,6,48,114,182,149,209,218,14,13,116,169,20,145,64,183,184,112,155,229,133,179,2,146,3,119,110,30,15,5,143,25,148,80,136,32,165,168,159,137,147,210,144,73,61,38,217,228,153,104,82,224,129,33,227,188,125,191,161,28,81,102,87,50,115,58,91,22,225,166,178,140,157,189,211,55,7,130,40,215,107,62,192,101,75,27,35,214,86,76,59,213,181,65,221,185,138,79,128,77,24,106,141,18,216,54,202,190,180,194,174,173,167,43,177,57,197,160,158